1000 1971
1 2 3 4 5 6 7 8 9 10 11 12 13 14 15 16 17 18 19 20 21 22 23 24 25
0 26 27 28 29 30 31 32 33 34 35 36 37 38 39 40 41 42 43 44 45 46 47 48 49 50 51 52
0 3 11 12 13 15 21 53 54 55 56 57 58 59 60 61 62 63
0 2 21 57 61 64 65 66 67 68 69 70 71 72 73 74 75 76 77 78 79 80 81 82 83 84 85 86 87 88 89
0 15 53 90 91 92 93 94 95 96 97 98 99 100 101 102 103 104 105 106 107 108 109 110 111 112 113 114 115 116 117 118 119 120 121 122 123 124 125 126 127 128 129 130 131 132 133 134 135 136 137 138 139 140 141 142 143 144 145 146 147 148 149 150 151 152 153 154 155 156 157 158 159 160 161 162 163 164 165 166 167 168 169 170 171 172 173 174 175 176 177 178
0 69 76 179 180 181 182 183 184 185 186 187 188 189 190 191 192 193 194 195 196
0 22 197 198 199 200 201 202 203 204 205 206 207 208 209 210 211 212 213 214 215 216 217 218 219 220 221 222 223 224 225 226 227
0 228 229 230 231 232 233 234 235 236 237 238 239 240 241 242 243 244 245 246 247 248 249 250 251 252 253 254 255 256 257 258 259 260 261 262 263 264 265 266 267 268 269 270 271 272 273 274 275 276 277 278 279 280 281 282 283 284 285 286 287 288 289 290 291 292 293 294 295 296 297 298 299 300 301 302 303 304 305 306 307 308 309 310 311 312 313 314 315 316 317 318 319 320 321 322 323 324 325 326 327 328 329 330 331 332 333 334 335 336 337 338 339 340 341 342 343 344 345 346 347 348 349 350 351 352 353 354 355 356 357 358 359 360 361 362 363 364 365 366 367 368 369 370 371 372 373 374 375 376 377 378 379 380 381 382 383 384 385 386 387 388 389 390 391 392 393 394 395 396 397 398 399 400 401 402 403 404 405 406 407 408 409 410 411 412 413 414 415 416 417 418 419 420 421 422 423 424 425 426 427 428 429 430 431 432 433 434 435 436 437 438 439 440 441 442 443 444 445 446 447 448 449 450 451 452 453 454 455 456 457 458 459 460 461 462 463 464 465 466 467 468 469 470 471 472 473 474 475 476 477 478 479 480 481 482 483 484 485 486 487 488 489 490 491 492 493 494 495 496 497 498 499 500 501 502 503 504 505 506 507 508 509 510 511 512 513 514 515 516 517 518 519 520 521 522 523 524 525 526 527 528 529 530 531 532 533 534 535 536 537 538 539 540 541 542 543 544 545 546 547 548 549 550 551 552 553 554 555 556 557 558 559 560 561 562 563 564 565 566 567 568 569 570 571 572 573 574 575 576 577 578 579 580 581 582 583 584 585 586 587 588 589 590 591 592 593 594 595 596 597 598 599 600 601 602 603 604 605 606 607 608 609 610 611 612 613 614 615 616 617 618 619 620 621 622 623 624 625 626 627 628 629 630 631 632 633 634 635 636 637 638 639 640 641 642 643 644 645 646 647 648 649 650 651 652 653 654 655 656 657 658 659 660 661 662 663 664 665 666 667 668 669 670 671 672 673 674 675 676 677 678 679 680 681 682 683 684 685 686 687 688 689 690 691 692 693 694 695 696 697 698 699 700 701 702 703 704 705 706 707 708 709 710 711 712 713 714 715 716 717 718 719 720 721 722 723 724 725 726 727 728 729 730 731 732 733 734 735 736 737 738 739 740 741 742 743 744 745 746 747 748 749 750 751 752 753 754 755 756 757 758 759 760 761 762 763 764 765 766 767 768 769 770 771 772 773 774 775 776 777 778 779 780 781 782 783 784 785 786 787 788 789 790 791 792 793 794 795 796 797 798 799 800 801 802 803 804 805 806 807 808 809 810 811 812 813 814 815 816 817 818 819 820 821 822 823 824 825 826 827 828 829 830 831 832 833 834 835 836 837 838 839 840 841 842 843 844 845 846 847 848 849 850 851 852 853 854 855 856 857 858 859 860 861 862 863 864 865 866 867 868 869 870 871 872 873 874 875 876 877 878 879 880 881 882 883 884 885 886 887 888 889 890 891 892 893 894 895 896 897 898 899 900 901 902 903 904 905 906 907 908 909 910 911 912 913 914 915 916 917 918 919 920 921 922 923 924 925 926 927 928 929 930 931 932 933 934 935 936 937 938 939 940 941 942 943 944 945 946 947 948 949 950 951 952 953 954 955 956 957 958 959 960 961 962 963 964 965 966 967 968 969 970 971 972 973 974 975 976 977 978 979 980 981 982 983 984 985 986 987 988 989 990 991 992 993 994 995 996 997 998 999
0 593 787
0
0
0 2 12 15 25 55
0 2 11 15 25 55
0 2 78 181
0
0 2 4 11 12 25 53 55 62 92 103 108 123 130 132 135 150 151 154 169 171 176 178
0
0 206 978
0 65 78 126 137 940
0 55
0 21
0 2 3 20 61 76 78 83
0 6 48
0 642
0
0 11 12 15 55
1 316
1 37
1 40 48
1 37
1
1
1 45
1
1
1
1 87
1 27 29
1
1 40 48 136
1 28 39 48 49 175 218
1 50 51 52
1
1 179
1
1 32
1
1 50
1 22 28 39 40 49 112 155 175 218 665
1 40 48
1 41 47 51 52
1 41 50
1 41 50 161 812
2 4 15
2
2 11 12 15 19 25
2 79
2 3
2 63
2
2 63
2 3 21 83
2 15
2 58 60
3 79
3 18
3
3 85
3 72 84 85
3 5 71 81 180
3 77
3 69 76 78 81 82 114 182 194
3 68 293
3
3
3 79
3 5 21 71 78
3 70 89
3 13 18 21 71 76
3 56 64 75
3 151
3 69 71
3 71
3 21 61
3 68 85
3 67 68 84
3
3 36 162
3
3 77
4 98 160 164 558
4 106 123 133 144 151 155 161 173 176 515
4 15 94 96 97 101 108 118 130 134 151 153 155 176 178
4 94 95 100 102 112 129 155 160 178
4 92 93 115 123 160 178
4 93 102 109 114 115 129 132 160 161 163
4 92 101 121 152 156 168
4 92 98 102 104 106 118 121 123 132 134 140 146 147 151 152 155 170 176 178 391 515
4 90 97 104 121 123 136 140 146 147 170 176
4 153
4 93 102 109 123 129 154 160 178
4 92 96 111 123 126 141 148 153 156 161 164 168 177 179 189 536
4 93 95 97 100 109 114 129 132 160 164 170 176
4 15 116 125 136 148 174 177
4 97 98 119 123 146 161 163
4 123 150 176
4 91 97 155 261 935
4 156 161
4 15 92 123 132 135 151 160 178 189 195
4 95 100 102 129 160 176 178
4 112 116 120 123 125 127 131 136 139 148 149 157 161 173 174 177 515
4 101 261
4 48 93 110 114 115 120 132 140 144 146 160 161 189 935
4
4 71 95 102 112 129 160 178 935
4 94 95 112 122 129 140 160 178
4 103 110 120 123 125 126 131 139 148 149 153 157 161 174 177
4 156 215 227
4 92 97 120 127 134 136 151 152 155 166 168 173 174 177 408 536
4 104 123 169 174
4 110 112 116 118 125 136 139 148 174 177 515
4 96 97 98 134 136 151 155
4 115 140 151
4 15 91 94 97 98 100 101 104 105 108 110 116 119 125 130 136 139 143 148 150 151 153 160 174 176 177 178
4 155
4 103 110 116 120 123 126 127 131 136 139 145 148 149 157 158 161 164 174 177
4 18 101 116 125 136 139 148 174 177 473
4 110 118 125 148 174 177
4 138 165
4 93 95 100 102 109 114 115 132 144 151 154 160 163 178
4 15 92 123 132 133 150 154 169 171 176 178
4 110 116 125 136 139 148 155 174 177
4 15 95 97 102 108 112 129 130 150 151 160 176 178
4 91 130 148 178
4 92 97 118 121 151 152 155 166 168 174
4 15 108 178
4 39 98 103 110 118 120 121 123 125 126 131 139 145 148 149 157 161 173 174 177
4 18
4 128
4 110 116 120 123 125 126 131 136 145 148 149 157 158 161 164 173 174 177 400
4 97 98 112 115 122 146 155 170
4 101 148 178
4 165
4 123 153 156 172 218 536 760 794
4 91 112 129
4 125 136 139 148 174 177
4 97 98 104 112 140 149 170 174 176 229 510 702 714
4 97 98 161 170
4 101 103 110 116 120 123 125 126 127 131 133 136 139 141 145 149 157 161 164 174 177 178
4 110 116 125 136 139 146 148 174 177 864
4 15 105 123 130 132 156 178 794 982
4 15 80 91 92 97 108 118 121 122 123 129 132 134 152 155 158 168 178
4 96 97 118 134 151 155 174 177 408
4 92 99 101 116 123 143 156 171 172
4 15 100 129 130 160 171 176 178
4 48 91 92 93 97 106 118 121 124 131 134 140 151 152 168 171
4 96 101 107 117 143 150 153 175 176 510
4 110 116 125 136 139 148 174 177
4 125 139 151 174 177
4 160
4 90 93 94 95 100 102 108 109 112 114 115 123 129 132 154 159 178 179 190
4 52 91 95 101 104 107 110 112 116 125 136 139 147 148 174 177 473 502
4 87
4 95 104 129
4 90 101 102 125 139 148 174 177
4 128 142
4 118 134 177
4
4 96 101 118 134 151 155 174 408 536
4 15 119 130 174 176
4 97 98 102 140 146 147
4 15 130 153 154 155 172 178 515
4 143 153 171 178
4 91 110 118 136 139 174 177
4 103 110 116 118 119 120 123 125 126 127 131 134 136 139 145 146 148 149 152 157 158 161 164 168 169 173 177 510 794
4 40 48 156
4 15 91 92 97 98 102 105 109 123 130 132 146 154 156 169 178 514 760
4 101 103 110 116 118 120 123 125 126 127 131 136 139 145 148 149 152 157 158 161 164 166 173 174
4 15 92 93 94 97 100 108 109 114 115 123 129 130 132 133 135 141 148 150 151 154 160 171 172 176
5 43 101 160 180 183 184 186 187 189 190 191 193 195 196 536
5 69 179 183 186 187 189 190 193 196
5 13
5 71
5 179 180 186 187 193 195
5 179 187 196 536 702 978
5 193
5 179 180 183 187 189 190 191 193
5 179 180 183 184 186 190 191 193 195
5 194
5 101 108 112 179 180 186 193
5 160 179 180 186 187 191 193 196
5 179 186 187 190 193
5
5 179 180 183 185 186 187 189 190 191
5 71 188
5 108 179 183 187 975
5 179 180 184 190
6
6 201 203 205 206 208 210 224 225 864
6 203 206 208
6 201 203 205 206 221 222 223
6 198 200 203 205 206 211 213 220 224
6 203 206 215 222
6 198 199 200 201 202 205 206 208 210 211 213 217 220 221 222 223 224
6 209
6 198 200 201 203 206 208 210 217 223 224 225
6 17 198 199 200 201 202 203 205 207 208 211 212 215 216 217 218 221 222 223 224 226 227
6 206 212 216
6 198 199 203 205 206 210 212 221 223
6 204
6 198 203 205 208 224
6 201 203 206 982
6 206 207 208 220 222 266 525
6 201 203 220 222 224
6
6 117 202 206 221
6 206 207 222 844
6 203 205 206 223
6 40 48 143 206
6
6 201 203 212 213 222 224
6 200 203 206 208 215 222 224
6 200 202 203 206 212 213 216 220 221 224
6 200 203 205 206 208 217 717
6 198 201 203 205 206 210 213 220 221 222
6 198 205
6 206
6 117 206 434
7 388
7 146 510
7 620
7
7
7
7 812
7
7
7 455
7
7
7 328
7 944
7 317
7
7
7
7 374 517
7 495 736
7 634 830
7 300
7
7
7 860
7
7
7
7 399 516 563
7 389 577
7 477
7 359
7 542 770 937 984
7 106 111 437
7
7
7 665
7 792
7 212
7
7 545
7
7
7 625
7
7 875
7 399
7 358
7
7 551
7 803
7
7
7
7 672
7 358 428 572
7 500
7 296
7 377 393 587 828 898
7
7 717
7
7 660
7
7 508 662
7 72 544 841
7
7
7 285 341 564 578
7 830 938
7
7
7 249
7
7 510
7
7
7 797
7
7 820
7 377 412
7 893
7
7
7
7
7
7
7 26
7 242
7
7 626 685
7 893
7 375 487 636 832
7
7 850
7 451
7
7
7
7 240
7 398
7
7
7
7
7
7
7
7
7
7
7
7 296 564 823
7 868
7 368
7
7 354
7 957
7
7
7
7
7 837
7
7 627
7 345 359 858
7 557
7 381 722 904 987
7
7 275 283 556
7 259 354 375 858 891
7
7
7
7 693
7
7
7
7 375 498 520 638 956
7 343
7
7
7
7 537
7
7 246 517
7 321 359 367 520 600 638
7
7 286 308
7
7
7
7 356 525 534 904
7 814 816
7 569
7
7 390 715 996
7
7
7 228 970
7 257 791 858
7 385
7 97
7
7 286
7
7 622
7 627
7 793
7 329 778 798
7 256 274 516
7 139 498
7 790 833
7
7
7
7 786
7
7 570
7 118 152 168 515 854
7
7 807
7
7 308
7 520 638
7 457 926
7
7 669
7 756
7
7
7
7
7
7
7
7
7
7
7 283 572 881
7
7
7
7
7
7 227 717
7
7
7 261
7 643
7
7
7
7
7
7
7
7
7 495
7 451 626
7
7
7 324 448 546 827 937
7
7 503
7
7 237 622
7
7 414
7 753
7
7
7 565
7
7
7 487
7 556 793 890
7
7 768
7
7
7 822 836 982
7 511 731 735
7
7 126 161 658
7
7
7
7 258 580 625
7 741
7
7 653 776
7 668 944
7
7
7
7
7
7 321 464 636
7
7
7 714 982
7 517
7
7
7 860
7 247 447
7 925
7
7 367 400 638 798 956
7
7 284
7
7 161 642 691 883
7 453
7
7 597 644 856 916
7
7
7 292
7 821
7 146 156 174 229 302 702
7 471 731
7
7
7 176
7 91 97 110 120 171 408 935
7 256 399
7 246 374 491 751 972
7
7
7 367 375 413 600
7 560 693
7
7
7
7 212 381 534 562
7 580
7
7
7
7
7
7
7 646
7 381 525
7
7 101 118 143 168 179 184 702
7 372 620
7 811 876
7
7 899
7
7 260 765 951
7
7 293
7 268
7 451 846 861
7
7 665 669 699
7 741
7
7 277 910
7
7
7 611 811
7
7 358 465
7 355
7 90
7
7 521
7
7 525
7 256 848
7 296 341
7 461 803
7 828
7
7
7 383 950
7 407
7
7 283 428
7
7
7
7
7 257
7 296
7
7 477 526 848 876
7
7
7
7
7
7
7 286 667
7
7 863
7
7
7
7 8
7
7
7 602 822
7 505 644 856
7
7
7 375 520 928
7
7 596 691
7
7
7 922
7 942 977
7
7
7
7
7 554 986
7
7
7
7
7 640
7 661
7
7
7 230 537
7
7 395 455
7
7
7 271 477
7 319 448
7 353 396
7
7
7
7
7
7
7 248
7 651
7 321 487 832
7
7 367 375 413 498 867 956 968
7 764
7 616
7
7 23 502 767
7 438
7 505 597 856 916
7
7 533 648 782
7
7 646
7
7 684
7 635
7 755 825
7 480
7
7
7 663
7
7 473
7
7 290
7 617 901
7 292
7 656 776 966
7
7 48 264 548
7
7 587
7 481
7 416 548
7
7 876
7 282
7
7
7 874
7
7
7
7
7 841
7
7
7
7 650
7 319
7
7
7
7
7
7 502 602 717
7
7 363 521
7
7
7 769
7 793 890
7
7 548
7
7
7 146 184 510 536
7 929 953
7 751
7
7
7
7 994
7
7
7
7 743
7
7 146 490 901 982
7 385 733 793
7 790
7 223 288 434 691 760
7
7
7
7
7 356
7
7
7
7
7 983
7
7
7
7 471 511 735 857
7 832
7 715
7
7 471 731 857
7 247
7
7
7
7 777
7 478 549
7
7 712
7
7
7
7 860
7
7
7
7 517 704
7
7 458 898
7
7 652 825
7 417 901 921
7
7
7
7 143 176 717
7
7
7
7 639 876
7 542 951
7
7 642
7 467
7 696
7 260
7
7 984
7
7
7
7 480 663
7 740
7 398
7
7
7
7 646
7
7
7
7 405
7 8
7
7
7 401 716 931
7 389
7 265 937
7 397 465 697 715 873 890
7 143 150 174
7
7
7 305
7 398 498
7
7
7
7
7 278 565
7
7
7
7 410
7
7
7 964
7 538 554
7 52 234
7
7 382 816
7 955
7 382 814
7
7 900
7
7 307
7 509
7 470 596 836 982
7 341
7
7 652 755
7
7 451
7 286 566
7
7 248 297 938
7
7 321 636 732
7 401
7
7
7 470 822 982
7 351
7
7
7
7 293 680
7
7
7 216
7 923
7 546
7
7 563 580
7
7 323
7
7
7
7 408
7
7 505 597 644 916
7 731 735
7 354 359 389
7 950
7 252 494 747
7 546
7
7 589
7 149 198
7
7
7 638
7 342
7
7
7
7
7 793
7 675
7 273
7 538 580 671 764
7
7
7
7
7 428
7
7 502
7
7
7
7
7
7 962
7 465 697 793
7 359
7
7 309 320
7
7
7
7 984
7 286 753 962 965
7 540
7 818
7 661 714 756 982
7
7
7 356 381
7
7
7
7
7
7 551
7
7
7
7
7
7 505 644 856
7
7
7
7
7 756
7 605
7 845
7
7 496
7 414
7
7 600
7 703
7
7 790
7
7
7
7 106 112 114 515
7
7 260 451 792
7 297 830
7 989
7 18
7
7 606
7
7 241 481
7
7
7
7
7
7 569 859
7 542 765
7
7 703
7
7 815
7 367 498 638
7 346
7
7
7
7
7 889 898
7
7 810
7 898
7 663
7
7 638
7
7 388
7
7 517
7
7
7 195
7
7 606
7 17 184
7
7
7
7 150 211 470 490 714 822 836 901
7 727
7 260 772 897
7
7 611
7 356
7
7 939
7
7
7
7
7 708
7
7 385
7
7
7
